c "776997.clq"
p edge 120 464
e 1 5
e 1 6
e 1 12
e 1 22
e 1 26
e 1 38
e 1 50
e 1 56
e 1 61
e 1 95
e 1 96
e 1 107
e 2 5
e 2 6
e 2 8
e 2 9
e 2 14
e 2 29
e 2 36
e 2 40
e 2 48
e 2 66
e 2 67
e 3 5
e 3 6
e 3 7
e 3 11
e 3 16
e 3 51
e 3 57
e 3 87
e 3 92
e 4 5
e 4 7
e 4 10
e 4 13
e 4 14
e 4 17
e 4 34
e 4 41
e 4 78
e 4 79
e 4 104
e 4 118
e 5 6
e 5 7
e 5 8
e 5 9
e 5 10
e 5 20
e 5 21
e 5 22
e 5 23
e 5 29
e 5 30
e 5 46
e 5 60
e 5 69
e 5 85
e 5 95
e 5 99
e 5 108
e 5 110
e 5 114
e 6 7
e 6 8
e 6 9
e 6 10
e 6 11
e 6 12
e 6 13
e 6 16
e 6 17
e 6 19
e 6 20
e 6 25
e 6 26
e 6 27
e 6 31
e 6 32
e 6 43
e 6 53
e 6 54
e 6 55
e 6 60
e 6 63
e 6 83
e 6 85
e 6 100
e 6 111
e 6 114
e 6 116
e 6 118
e 7 8
e 7 9
e 7 10
e 7 11
e 7 12
e 7 13
e 7 16
e 7 17
e 7 19
e 7 22
e 7 23
e 7 24
e 7 27
e 7 30
e 7 31
e 7 34
e 7 36
e 7 37
e 7 39
e 7 45
e 7 47
e 7 49
e 7 50
e 7 54
e 7 64
e 7 74
e 7 89
e 7 93
e 7 94
e 7 96
e 7 97
e 7 106
e 7 109
e 7 112
e 7 120
e 8 15
e 8 29
e 8 57
e 8 70
e 8 72
e 8 76
e 8 83
e 8 86
e 8 96
e 8 98
e 8 99
e 8 104
e 8 106
e 9 13
e 9 16
e 9 21
e 9 26
e 9 45
e 9 48
e 9 69
e 9 70
e 9 108
e 10 11
e 10 14
e 10 15
e 10 18
e 10 35
e 10 110
e 11 12
e 11 15
e 11 18
e 11 19
e 11 21
e 11 24
e 11 25
e 11 32
e 11 33
e 11 39
e 11 40
e 11 43
e 11 54
e 11 58
e 11 73
e 11 88
e 11 103
e 11 119
e 12 14
e 12 17
e 12 25
e 12 30
e 12 38
e 12 44
e 12 58
e 12 59
e 12 99
e 12 108
e 12 114
e 13 15
e 13 19
e 13 22
e 13 27
e 13 30
e 13 35
e 13 55
e 13 56
e 13 68
e 13 72
e 13 73
e 13 78
e 13 80
e 13 85
e 13 92
e 13 95
e 13 103
e 14 24
e 14 28
e 14 33
e 14 34
e 14 38
e 14 39
e 14 41
e 14 43
e 14 49
e 14 73
e 14 76
e 14 77
e 14 80
e 14 90
e 14 113
e 14 114
e 14 117
e 15 18
e 15 25
e 15 27
e 15 28
e 15 37
e 15 39
e 15 45
e 15 47
e 15 51
e 15 59
e 15 70
e 15 71
e 15 73
e 15 110
e 16 18
e 16 21
e 16 24
e 16 26
e 16 61
e 17 20
e 17 36
e 17 41
e 17 45
e 17 68
e 17 84
e 17 86
e 17 88
e 17 90
e 18 20
e 18 23
e 18 35
e 18 60
e 18 65
e 18 67
e 18 79
e 18 81
e 18 91
e 18 103
e 18 117
e 19 28
e 19 31
e 19 36
e 19 58
e 19 120
e 20 42
e 20 44
e 20 55
e 20 59
e 20 105
e 20 117
e 21 23
e 22 28
e 22 32
e 22 37
e 22 41
e 22 47
e 22 53
e 22 72
e 22 92
e 22 102
e 22 115
e 23 42
e 23 46
e 23 51
e 23 52
e 23 56
e 23 74
e 23 78
e 23 93
e 23 97
e 23 105
e 24 33
e 24 34
e 24 82
e 24 94
e 25 29
e 25 31
e 25 54
e 25 63
e 26 32
e 26 82
e 27 33
e 27 38
e 27 40
e 27 42
e 27 46
e 27 55
e 27 57
e 27 58
e 27 69
e 27 98
e 27 104
e 28 61
e 28 62
e 28 64
e 28 91
e 28 106
e 28 109
e 28 111
e 29 42
e 29 57
e 29 65
e 30 65
e 30 66
e 30 70
e 30 71
e 31 37
e 31 49
e 31 52
e 31 53
e 31 66
e 31 75
e 31 76
e 31 88
e 32 47
e 33 35
e 33 49
e 33 65
e 33 72
e 34 56
e 34 84
e 34 96
e 34 116
e 35 43
e 35 67
e 35 88
e 35 103
e 36 40
e 36 60
e 37 46
e 37 48
e 37 53
e 37 74
e 37 79
e 37 80
e 37 87
e 37 102
e 37 107
e 37 113
e 37 116
e 38 44
e 39 62
e 39 64
e 39 67
e 39 89
e 39 93
e 39 98
e 42 44
e 42 50
e 42 63
e 42 77
e 42 84
e 43 68
e 43 81
e 43 83
e 43 108
e 44 50
e 44 59
e 45 52
e 45 66
e 45 77
e 45 95
e 45 107
e 45 119
e 46 48
e 46 109
e 47 71
e 47 120
e 48 51
e 48 52
e 48 61
e 48 68
e 48 74
e 48 76
e 48 81
e 48 102
e 48 112
e 49 77
e 49 85
e 50 81
e 50 94
e 51 62
e 51 111
e 51 119
e 52 113
e 53 62
e 53 87
e 53 110
e 53 115
e 54 64
e 54 75
e 54 84
e 54 86
e 54 90
e 54 101
e 54 105
e 54 112
e 54 113
e 56 69
e 56 79
e 56 87
e 56 94
e 57 63
e 57 92
e 59 118
e 63 83
e 63 97
e 63 112
e 64 89
e 64 93
e 65 120
e 66 109
e 67 75
e 67 82
e 68 71
e 69 115
e 69 117
e 72 104
e 73 91
e 73 100
e 73 119
e 74 75
e 74 78
e 74 82
e 74 90
e 74 97
e 74 102
e 75 89
e 77 80
e 77 100
e 79 98
e 80 91
e 82 100
e 83 107
e 85 86
e 87 106
e 90 99
e 92 101
e 95 101
e 96 101
e 102 111
e 103 105
e 103 115
e 109 118
e 114 116
